results/res_prop_muc/res_Cimatti_mathsat_cores/QF_UF/SEQ020_size2.smt.smt2.out

real	0m0.057s
user	0m0.013s
sys	0m0.002s
